# Solution for model Sailor_Problem
# Objective value = 0
P[0,0] 0
P[0,1] 0
P[1,0] 0
P[1,1] 0
P[2,0] 0
P[2,1] 0
P[3,0] 0
P[3,1] 0
P[4,0] 0
P[4,1] 0
P[5,0] 0
P[5,1] 0
P[6,0] 0
P[6,1] 0
P[7,0] 0
P[7,1] 0
P[8,0] 0
P[8,1] 0
P[9,0] 0
P[9,1] 0
P[10,0] 0
P[10,1] 0
P[11,0] 0
P[11,1] 0
P[12,0] 0
P[12,1] 0
P[13,0] 0
P[13,1] 0
P[14,0] 5
P[14,1] 0
P[15,0] 10
P[15,1] 0
P[16,0] 15
P[16,1] 0
P[17,0] 20
P[17,1] 0
P[18,0] 25
P[18,1] 0
P[19,0] 30
P[19,1] 0
alpha[0,0] 0
alpha[0,1] 0
alpha[0,2] 0
alpha[0,3] 0
alpha[0,4] 1
alpha[1,0] 0
alpha[1,1] 0
alpha[1,2] 0
alpha[1,3] 0
alpha[1,4] 1
alpha[2,0] 0
alpha[2,1] 0
alpha[2,2] 0
alpha[2,3] 0
alpha[2,4] 1
alpha[3,0] 0
alpha[3,1] 0
alpha[3,2] 0
alpha[3,3] 0
alpha[3,4] 1
alpha[4,0] 0
alpha[4,1] 0
alpha[4,2] 0
alpha[4,3] 0
alpha[4,4] 1
alpha[5,0] 0
alpha[5,1] 0
alpha[5,2] 0
alpha[5,3] 0
alpha[5,4] 1
alpha[6,0] 0
alpha[6,1] 0
alpha[6,2] 0
alpha[6,3] 0
alpha[6,4] 1
alpha[7,0] 0
alpha[7,1] 0
alpha[7,2] 0
alpha[7,3] 0
alpha[7,4] 1
alpha[8,0] 0
alpha[8,1] 0
alpha[8,2] 0
alpha[8,3] 0
alpha[8,4] 1
alpha[9,0] 0
alpha[9,1] 0
alpha[9,2] 0
alpha[9,3] 0
alpha[9,4] 1
alpha[10,0] 0
alpha[10,1] 0
alpha[10,2] 0
alpha[10,3] 0
alpha[10,4] 1
alpha[11,0] 0
alpha[11,1] 0
alpha[11,2] 0
alpha[11,3] 0
alpha[11,4] 1
alpha[12,0] 0
alpha[12,1] 0
alpha[12,2] 0
alpha[12,3] 0
alpha[12,4] 1
alpha[13,0] 1
alpha[13,1] 0
alpha[13,2] 0
alpha[13,3] 0
alpha[13,4] 0
alpha[14,0] 1
alpha[14,1] 0
alpha[14,2] 0
alpha[14,3] 0
alpha[14,4] 0
alpha[15,0] 1
alpha[15,1] 0
alpha[15,2] 0
alpha[15,3] 0
alpha[15,4] 0
alpha[16,0] 1
alpha[16,1] 0
alpha[16,2] 0
alpha[16,3] 0
alpha[16,4] 0
alpha[17,0] 1
alpha[17,1] 0
alpha[17,2] 0
alpha[17,3] 0
alpha[17,4] 0
alpha[18,0] 1
alpha[18,1] 0
alpha[18,2] 0
alpha[18,3] 0
alpha[18,4] 0
alpha[19,0] 0
alpha[19,1] 0
alpha[19,2] 0
alpha[19,3] 0
alpha[19,4] 1
r[0] 0
r[1] 0
r[2] 0
r[3] 0
r[4] 0
r[5] 0
r[6] 0
r[7] 0
r[8] 0
r[9] 0
r[10] 0
r[11] 0
r[12] 0
r[13] 5
r[14] 5
r[15] 5
r[16] 5
r[17] 5
r[18] 5
r[19] 0
p[0] 0
p[1] 0
p[2] 0
p[3] 0
p[4] 0
p[5] 0
p[6] 0
p[7] 0
p[8] 0
p[9] 0
p[10] 0
p[11] 0
p[12] 0
p[13] 0
p[14] 0
p[15] 0
p[16] 0
p[17] 0
p[18] 0
p[19] 0
aux1[0] 0
aux1[1] 0
aux1[2] 0
aux1[3] 0
aux1[4] 0
aux1[5] 0
aux1[6] 0
aux1[7] 0
aux1[8] 0
aux1[9] 0
aux1[10] 0
aux1[11] 0
aux1[12] 0
aux1[13] 0
aux1[14] 0
aux1[15] 0
aux1[16] 0
aux1[17] 0
aux1[18] 0
aux1[19] 0
aux2[0] 0
aux2[1] 0
aux2[2] 0
aux2[3] 0
aux2[4] 0
aux2[5] 0
aux2[6] 0
aux2[7] 0
aux2[8] 0
aux2[9] 0
aux2[10] 0
aux2[11] 0
aux2[12] 0
aux2[13] 0
aux2[14] 0
aux2[15] 0
aux2[16] 0
aux2[17] 0
aux2[18] 0
aux2[19] 0
